[-1, 925, 233, 416, 1085, 966, 1102, 1132, 
925, -1, 771, 689, 443, 322, 312, 307, 
233, 771, -1, 183, 869, 758, 903, 937, 
416, 689, 183, -1, 709, 612, 766, 805, 
1085, 443, 869, 709, -1, 142, 174, 218, 
966, 322, 758, 612, 142, -1, 161, 206, 
1102, 312, 903, 766, 174, 161, -1, 47, 
1132, 307, 937, 805, 218, 206, 47, -1]